param n:= 10;

param carros:= 2;

param tmax:= 21.2;

param pontos:
	1	2	3 :=
1	10.50	14.40	0
2	18.00	15.90	10
3	16.30	13.30	5
4	16.40	17.80	5
5	14.00	5.10	10
6	11.40	6.70	15
7	7.40	24.00	15
8	8.20	19.90	15
9	5.60	11.10	10
10	10.50	14.40	0;
